c read Graph
c width = 92
c time = 236 ms
c width = 9
c time = 313 ms
c width = 8
c time = 431 ms
c width = 7
c time = 3060 ms
c width = 7
c time = 4658 ms
s td 98 8 105
b 1 1 2 16
b 2 2 3 16 17
b 3 13 14 29 30
b 4 3 16 17 31
b 5 13 29 30 45
b 6 61 76 77 92
b 7 75 89 90 104
b 8 61 77 92 93
b 9 75 89 103 104
b 10 3 4 17 18 31
b 11 4 5 17 18 19 31
b 12 5 6 17 18 19 20 31
b 13 6 7 17 18 19 20 21 31
b 14 7 17 18 19 20 21 31 32
b 15 7 18 19 20 21 31 32 33
b 16 7 19 20 21 31 32 33 34
b 17 7 20 21 31 32 33 34 35
b 18 7 21 31 32 33 34 35 46
b 19 7 21 32 33 34 35 46 47
b 20 7 21 33 34 35 46 47 48
b 21 7 21 34 35 46 47 48 49
b 22 7 21 35 46 47 48 49 61
b 23 7 21 35 47 48 49 61 62
b 24 7 21 35 48 49 61 62 63
b 25 7 21 35 49 61 62 63 77
b 26 7 21 35 49 61 63 77 93
b 27 7 21 35 49 63 77 78 93
b 28 7 21 35 49 63 64 78 93
b 29 7 21 35 49 50 64 78 93
b 30 7 21 35 36 50 64 78 93
b 31 7 21 22 36 50 64 78 93
b 32 7 8 22 36 50 64 78 93
b 33 8 22 36 50 64 78 79 93
b 34 8 22 36 50 64 65 79 93
b 35 8 22 36 50 51 65 79 93
b 36 8 22 36 37 51 65 79 93
b 37 8 22 23 37 51 65 79 93
b 38 8 9 23 37 51 65 79 93
b 39 9 23 37 51 65 79 93 94
b 40 9 23 37 51 65 79 80 94
b 41 9 23 37 51 65 66 80 94
b 42 9 23 37 51 52 66 80 94
b 43 9 23 37 38 52 66 80 94
b 44 9 23 24 38 52 66 80 94
b 45 9 24 38 52 66 80 94 95
b 46 9 24 38 52 66 80 81 95
b 47 9 24 38 52 66 67 81 95
b 48 9 24 38 52 53 67 81 95
b 49 9 24 38 39 53 67 81 95
b 50 9 24 25 39 53 67 81 95
b 51 9 25 39 53 67 81 95 96
b 52 9 25 39 53 67 81 82 96
b 53 9 25 39 53 67 68 82 96
b 54 9 25 39 53 54 68 82 96
b 55 9 25 39 40 54 68 82 96
b 56 9 25 40 54 68 82 96 97
b 57 9 25 40 54 68 82 83 97
b 58 9 25 40 54 68 69 83 97
b 59 9 25 40 54 55 69 83 97
b 60 9 25 40 41 55 69 83 97
b 61 9 25 41 55 69 83 97 98
b 62 9 25 41 55 69 83 84 98
b 63 9 25 41 55 69 70 84 98
b 64 9 25 41 55 56 70 84 98
b 65 9 25 41 56 70 84 98 99
b 66 9 25 41 56 70 84 85 99
b 67 9 25 41 56 70 71 85 99
b 68 9 25 41 56 57 71 85 99
b 69 9 25 41 57 71 85 99 100
b 70 9 25 41 57 71 85 86 100
b 71 9 25 41 57 71 72 86 100
b 72 9 25 41 57 72 86 100 101
b 73 9 25 41 57 72 86 87 101
b 74 9 25 41 57 72 73 87 101
b 75 9 25 41 57 73 87 101 102
b 76 9 25 41 57 73 87 88 102
b 77 9 25 41 57 73 88 102 103
b 78 9 25 41 57 73 88 89 103
b 79 9 25 41 57 73 75 89 103
b 80 9 25 41 57 73 74 75 89
b 81 9 25 41 57 58 73 74 75
b 82 9 25 41 42 57 58 74 75
b 83 9 25 41 42 58 60 74 75
b 84 9 25 41 42 44 58 60 74
b 85 9 25 28 41 42 44 58 60
b 86 9 13 25 28 41 42 44 60
b 87 44 58 59 60 74
b 88 13 28 44 45 60
b 89 13 28 29 44 45
b 90 9 13 25 27 28 41 42
b 91 9 11 13 25 27 41
b 92 9 10 11 25
b 93 11 25 26 27 41
b 94 11 12 13 27
b 95 28 42 43 44 58
b 96 90 104 105
b 97 76 91 92
b 98 14 15 30
1 2
2 4
3 98
3 5
4 10
5 89
6 97
6 8
7 96
7 9
8 26
9 79
10 11
11 12
12 13
13 14
14 15
15 16
16 17
17 18
18 19
19 20
20 21
21 22
22 23
23 24
24 25
25 26
26 27
27 28
28 29
29 30
30 31
31 32
32 33
33 34
34 35
35 36
36 37
37 38
38 39
39 40
40 41
41 42
42 43
43 44
44 45
45 46
46 47
47 48
48 49
49 50
50 51
51 52
52 53
53 54
54 55
55 56
56 57
57 58
58 59
59 60
60 61
61 62
62 63
63 64
64 65
65 66
66 67
67 68
68 69
69 70
70 71
71 72
72 73
73 74
74 75
75 76
76 77
77 78
78 79
79 80
80 81
81 82
82 83
83 84
84 87
84 85
85 95
85 86
86 88
86 90
88 89
90 91
91 92
91 94
91 93
